22 10
76 60
1 57
68 18
44 84
16 118
38 102
17 155
14 136
61 38
65 57
75 5
57 30
2 135
7 179
78 26
7 19
24 138
56 65
24 46
57 53
29 3
36 10
24 154
64 43
41 120
93 8
53 55
38 24
13 10
87 57
52 4
23 34
18 45
6 114
34 1
30 118
21 48
4 34
18 90
3 77
64 11
39 56
75 59
84 46
31 110
1 81
43 89
24 44
9 100
21 189
19 70
9 130
31 41
77 20
44 125
11 176
34 172
56 66
4 174
36 4
7 103
63 89
29 98
19 179
99 1
21 38
88 27
29 113
92 43
13 12
51 82
6 117
2 176
15 98
17 89
14 69
94 7
12 66
52 8
11 69
14 27
21 103
1 141
76 49
13 138
42 114
67 42
51 60
33 13
4 147
12 84
65 59
83 2
15 67
65 55
34 5
95 50
29 33
15 128
